NAME          DCAP_3_4_2_200_SS171
ROWS
 N  OBJ
 L  CON1
 L  CON2
 L  CON3
 L  CON4
 L  CON5
 L  CON6
 L  CON7
 L  CON8
 L  CON9
 L  CON10
 L  CON11
 L  CON12
 E  CON13
 E  CON14
 E  CON15
 E  CON16
 E  CON17
 E  CON18
 E  CON19
 E  CON20
COLUMNS
    x[1,1]    OBJ       6.180167      CON1      1.000000    
    x[1,1]    CON7      -1.000000     CON8      -1.000000   
    x[1,2]    OBJ       5.039546      CON2      1.000000    
    x[1,2]    CON8      -1.000000   
    x[2,1]    OBJ       6.732585      CON3      1.000000    
    x[2,1]    CON9      -1.000000     CON10     -1.000000   
    x[2,2]    OBJ       7.443064      CON4      1.000000    
    x[2,2]    CON10     -1.000000   
    x[3,1]    OBJ       6.563535      CON5      1.000000    
    x[3,1]    CON11     -1.000000     CON12     -1.000000   
    x[3,2]    OBJ       6.054841      CON6      1.000000    
    x[3,2]    CON12     -1.000000   
    MARKER    'MARKER'                'INTORG'
    u[1,1]    OBJ       48.076654     CON1      -1.000000   
    u[1,2]    OBJ       49.466655     CON2      -1.000000   
    u[2,1]    OBJ       49.996186     CON3      -1.000000   
    u[2,2]    OBJ       32.230043     CON4      -1.000000   
    u[3,1]    OBJ       20.066487     CON5      -1.000000   
    u[3,2]    OBJ       27.484319     CON6      -1.000000   
    y[1,1,1]  OBJ       5.558739      CON7      0.718707    
    y[1,1,1]  CON13     1.000000    
    y[1,1,2]  OBJ       6.037787      CON8      0.819144    
    y[1,1,2]  CON14     1.000000    
    y[1,2,1]  OBJ       5.772595      CON7      1.061321    
    y[1,2,1]  CON15     1.000000    
    y[1,2,2]  OBJ       8.998497      CON8      1.192141    
    y[1,2,2]  CON16     1.000000    
    y[1,3,1]  OBJ       8.033865      CON7      0.579788    
    y[1,3,1]  CON17     1.000000    
    y[1,3,2]  OBJ       6.281949      CON8      0.817661    
    y[1,3,2]  CON18     1.000000    
    y[1,4,1]  OBJ       8.557326      CON7      1.243425    
    y[1,4,1]  CON19     1.000000    
    y[1,4,2]  OBJ       7.383705      CON8      0.648760    
    y[1,4,2]  CON20     1.000000    
    y[2,1,1]  OBJ       7.556618      CON9      0.718707    
    y[2,1,1]  CON13     1.000000    
    y[2,1,2]  OBJ       9.440506      CON10     0.819144    
    y[2,1,2]  CON14     1.000000    
    y[2,2,1]  OBJ       5.843001      CON9      1.061321    
    y[2,2,1]  CON15     1.000000    
    y[2,2,2]  OBJ       8.493043      CON10     1.192141    
    y[2,2,2]  CON16     1.000000    
    y[2,3,1]  OBJ       5.609556      CON9      0.579788    
    y[2,3,1]  CON17     1.000000    
    y[2,3,2]  OBJ       8.933727      CON10     0.817661    
    y[2,3,2]  CON18     1.000000    
    y[2,4,1]  OBJ       6.990543      CON9      1.243425    
    y[2,4,1]  CON19     1.000000    
    y[2,4,2]  OBJ       5.775235      CON10     0.648760    
    y[2,4,2]  CON20     1.000000    
    y[3,1,1]  OBJ       5.982110      CON11     0.718707    
    y[3,1,1]  CON13     1.000000    
    y[3,1,2]  OBJ       8.724217      CON12     0.819144    
    y[3,1,2]  CON14     1.000000    
    y[3,2,1]  OBJ       5.440398      CON11     1.061321    
    y[3,2,1]  CON15     1.000000    
    y[3,2,2]  OBJ       9.605311      CON12     1.192141    
    y[3,2,2]  CON16     1.000000    
    y[3,3,1]  OBJ       9.131043      CON11     0.579788    
    y[3,3,1]  CON17     1.000000    
    y[3,3,2]  OBJ       6.273307      CON12     0.817661    
    y[3,3,2]  CON18     1.000000    
    y[3,4,1]  OBJ       5.858976      CON11     1.243425    
    y[3,4,1]  CON19     1.000000    
    y[3,4,2]  OBJ       8.417034      CON12     0.648760    
    y[3,4,2]  CON20     1.000000    
    z[1,1]    OBJ       733.305057    CON13     1.000000    
    z[1,2]    OBJ       612.706755    CON14     1.000000    
    z[2,1]    OBJ       843.817097    CON15     1.000000    
    z[2,2]    OBJ       987.881328    CON16     1.000000    
    z[3,1]    OBJ       820.279130    CON17     1.000000    
    z[3,2]    OBJ       859.592771    CON18     1.000000    
    z[4,1]    OBJ       563.625368    CON19     1.000000    
    z[4,2]    OBJ       597.214035    CON20     1.000000    
    MARKER    'MARKER'                 'INTEND'
RHS
    RHS       CON1      -0.000000     CON2      -0.000000   
    RHS       CON3      -0.000000     CON4      -0.000000   
    RHS       CON5      -0.000000     CON6      -0.000000   
    RHS       CON7      -0.000000     CON8      -0.000000   
    RHS       CON9      -0.000000     CON10     -0.000000   
    RHS       CON11     -0.000000     CON12     -0.000000   
    RHS       CON13     1.000000      CON14     1.000000    
    RHS       CON15     1.000000      CON16     1.000000    
    RHS       CON17     1.000000      CON18     1.000000    
    RHS       CON19     1.000000      CON20     1.000000    
BOUNDS
 BV BOUND     u[1,1]  
 BV BOUND     u[1,2]  
 BV BOUND     u[2,1]  
 BV BOUND     u[2,2]  
 BV BOUND     u[3,1]  
 BV BOUND     u[3,2]  
 BV BOUND     y[1,1,1]
 BV BOUND     y[1,1,2]
 BV BOUND     y[1,2,1]
 BV BOUND     y[1,2,2]
 BV BOUND     y[1,3,1]
 BV BOUND     y[1,3,2]
 BV BOUND     y[1,4,1]
 BV BOUND     y[1,4,2]
 BV BOUND     y[2,1,1]
 BV BOUND     y[2,1,2]
 BV BOUND     y[2,2,1]
 BV BOUND     y[2,2,2]
 BV BOUND     y[2,3,1]
 BV BOUND     y[2,3,2]
 BV BOUND     y[2,4,1]
 BV BOUND     y[2,4,2]
 BV BOUND     y[3,1,1]
 BV BOUND     y[3,1,2]
 BV BOUND     y[3,2,1]
 BV BOUND     y[3,2,2]
 BV BOUND     y[3,3,1]
 BV BOUND     y[3,3,2]
 BV BOUND     y[3,4,1]
 BV BOUND     y[3,4,2]
 BV BOUND     z[1,1]  
 BV BOUND     z[1,2]  
 BV BOUND     z[2,1]  
 BV BOUND     z[2,2]  
 BV BOUND     z[3,1]  
 BV BOUND     z[3,2]  
 BV BOUND     z[4,1]  
 BV BOUND     z[4,2]  
ENDATA
